proyfinal/src/viki/013/andrea/andrea-localstore/experimentInOfficeAgust.take6/worker_8/1b2cde7b-a1ce-4db5-ae80-c6da7ecaccce.als.cnf.out
Reading from standard input... Use '--help' for help.
============================[ Problem Statistics ]=============================
|                                                                             |
|  Number of variables:         87638                                         |
|  Number of clauses:          161767                                         |
|  Parse time:                   0.03 s                                       |
|                                                                             |
============================[ Search Statistics ]==============================
| Conflicts |          ORIGINAL         |          LEARNT          | Progress |
|           |    Vars  Clauses Literals |    Limit  Clauses Lit/Cl |          |
===============================================================================
|       100 |   63178   108127   270059 |    39646      100     15 | 27.910 % |
|       250 |   63178   108127   270059 |    43611      250     16 | 27.910 % |
|       475 |   63158   108049   269872 |    47972      474     43 | 27.933 % |
|       812 |   63158   108049   269872 |    52769      811     59 | 27.933 % |
|      1318 |   63158   108049   269872 |    58046     1317     61 | 27.933 % |
|      2077 |   63097   107765   269214 |    63851     2069     76 | 28.003 % |
|      3216 |   63097   107765   269214 |    70236     3208     84 | 28.003 % |
|      4924 |   63097   107765   269214 |    77259     4916     90 | 28.003 % |
|      7486 |   63097   107765   269214 |    84985     7478     96 | 28.003 % |
===============================================================================
restarts              : 41
conflicts             : 9602           (6935 /sec)
decisions             : 45339          (0.00 % random) (32748 /sec)
propagations          : 13934158       (10064557 /sec)
conflict literals     : 909966         (42.73 % deleted)
Memory used           : 27.11 MB
CPU time              : 1.38448 s

INDETERMINATE
